Problem:    
Rows:       55
Columns:    153 (153 integer, 153 binary)
Non-zeros:  902
Status:     INTEGER OPTIMAL
Objective:  score = 37597 (MAXimum)

   No.   Row name        Activity     Lower bound   Upper bound
------ ------------    ------------- ------------- -------------
     1 index_0                    16             0               
     2 index_1                     1             0               
     3 index_2                     1             0               
     4 index_3                     0             0               
     5 index_4                     0             0               
     6 index_5                     0             0               
     7 index_6                     1             0               
     8 index_7                     1             0               
     9 index_8                     1             0               
    10 index_9                     2             0               
    11 index_10                    0             0               
    12 index_11                    4             0               
    13 index_12                    1             0               
    14 index_13                    0             0               
    15 index_14                    1             0               
    16 index_15                    0             0               
    17 index_16                    1             0               
    18 index_17                    0             0               
    19 index_18                    0             0               
    20 index_19                    1             0               
    21 index_20                    0             0               
    22 index_21                    1             0               
    23 index_22                    0             0               
    24 index_23                    2             0               
    25 index_24                    0             0               
    26 index_25                    1             0               
    27 index_26                    2             0               
    28 index_27                    3             0               
    29 index_28                    0             0               
    30 index_29                    3             0               
    31 index_30                    1             0               
    32 index_31                    3             0               
    33 index_32                    0             0               
    34 index_33                    1             0               
    35 index_34                    1             0               
    36 index_35                    0             0               
    37 index_36                    1             0               
    38 index_37                    1             0               
    39 index_38                    0             0               
    40 index_39                    1             0               
    41 index_40                    0             0               
    42 index_41                    1             0               
    43 index_42                    1             0               
    44 index_43                    0             0               
    45 index_44                    9             0               
    46 index_45                    0             0               
    47 index_46                    2             0               
    48 index_47                   10             0               
    49 index_48                    1             0               
    50 index_49                    1             0               
    51 index_50                    1             0               
    52 index_51                    2             0               
    53 index_52                    1             0               
    54 index_53                    0             0               
    55 length                   1558                        4285 

   No. Column name       Activity     Lower bound   Upper bound
------ ------------    ------------- ------------- -------------
     1 c0           *              1             0             1 
     2 c1           *              1             0             1 
     3 c2           *              1             0             1 
     4 c3           *              1             0             1 
     5 c4           *              1             0             1 
     6 c5           *              1             0             1 
     7 c6           *              1             0             1 
     8 c7           *              1             0             1 
     9 c8           *              1             0             1 
    10 c9           *              1             0             1 
    11 c10          *              1             0             1 
    12 c11          *              1             0             1 
    13 c12          *              1             0             1 
    14 c13          *              1             0             1 
    15 c14          *              1             0             1 
    16 c15          *              1             0             1 
    17 c16          *              1             0             1 
    18 c17          *              1             0             1 
    19 c18          *              1             0             1 
    20 c19          *              1             0             1 
    21 c20          *              1             0             1 
    22 c21          *              1             0             1 
    23 c22          *              1             0             1 
    24 c23          *              1             0             1 
    25 c24          *              1             0             1 
    26 c25          *              1             0             1 
    27 c26          *              1             0             1 
    28 c27          *              1             0             1 
    29 c28          *              1             0             1 
    30 c29          *              1             0             1 
    31 c30          *              1             0             1 
    32 c31          *              1             0             1 
    33 c32          *              1             0             1 
    34 c33          *              1             0             1 
    35 c34          *              1             0             1 
    36 c35          *              1             0             1 
    37 c36          *              1             0             1 
    38 c37          *              1             0             1 
    39 c38          *              1             0             1 
    40 c39          *              1             0             1 
    41 c40          *              1             0             1 
    42 c41          *              1             0             1 
    43 c42          *              1             0             1 
    44 c43          *              1             0             1 
    45 c44          *              1             0             1 
    46 c45          *              1             0             1 
    47 c46          *              1             0             1 
    48 c47          *              1             0             1 
    49 c48          *              1             0             1 
    50 c49          *              1             0             1 
    51 c50          *              1             0             1 
    52 c51          *              1             0             1 
    53 c52          *              1             0             1 
    54 c53          *              1             0             1 
    55 s0           *              0             0             1 
    56 s1           *              0             0             1 
    57 s2           *              1             0             1 
    58 s3           *              0             0             1 
    59 s4           *              1             0             1 
    60 s5           *              0             0             1 
    61 s6           *              0             0             1 
    62 s7           *              1             0             1 
    63 s8           *              0             0             1 
    64 s9           *              0             0             1 
    65 s10          *              0             0             1 
    66 s11          *              0             0             1 
    67 s12          *              0             0             1 
    68 s13          *              0             0             1 
    69 s14          *              1             0             1 
    70 s15          *              0             0             1 
    71 s16          *              1             0             1 
    72 s17          *              1             0             1 
    73 s18          *              1             0             1 
    74 s19          *              0             0             1 
    75 s20          *              0             0             1 
    76 s21          *              0             0             1 
    77 s22          *              0             0             1 
    78 s23          *              0             0             1 
    79 s24          *              0             0             1 
    80 s25          *              0             0             1 
    81 s26          *              0             0             1 
    82 s27          *              0             0             1 
    83 s28          *              0             0             1 
    84 s29          *              0             0             1 
    85 s30          *              0             0             1 
    86 s31          *              1             0             1 
    87 s32          *              0             0             1 
    88 s33          *              1             0             1 
    89 s34          *              0             0             1 
    90 s35          *              0             0             1 
    91 s36          *              0             0             1 
    92 s37          *              1             0             1 
    93 s38          *              0             0             1 
    94 s40          *              1             0             1 
    95 s42          *              0             0             1 
    96 s45          *              0             0             1 
    97 s46          *              1             0             1 
    98 s47          *              0             0             1 
    99 s48          *              0             0             1 
   100 s52          *              0             0             1 
   101 s54          *              0             0             1 
   102 s55          *              1             0             1 
   103 s59          *              0             0             1 
   104 s61          *              0             0             1 
   105 s62          *              0             0             1 
   106 s63          *              0             0             1 
   107 s64          *              0             0             1 
   108 s65          *              0             0             1 
   109 s66          *              0             0             1 
   110 s67          *              0             0             1 
   111 s68          *              0             0             1 
   112 s69          *              1             0             1 
   113 s70          *              1             0             1 
   114 s71          *              0             0             1 
   115 s72          *              0             0             1 
   116 s73          *              0             0             1 
   117 s74          *              0             0             1 
   118 s75          *              0             0             1 
   119 s76          *              0             0             1 
   120 s77          *              0             0             1 
   121 s78          *              0             0             1 
   122 s79          *              0             0             1 
   123 s80          *              0             0             1 
   124 s81          *              1             0             1 
   125 s82          *              0             0             1 
   126 s83          *              0             0             1 
   127 s84          *              1             0             1 
   128 s85          *              0             0             1 
   129 s86          *              0             0             1 
   130 s87          *              0             0             1 
   131 s88          *              0             0             1 
   132 s89          *              0             0             1 
   133 s90          *              0             0             1 
   134 s91          *              0             0             1 
   135 s92          *              0             0             1 
   136 s93          *              0             0             1 
   137 s94          *              0             0             1 
   138 s95          *              0             0             1 
   139 s96          *              0             0             1 
   140 s97          *              0             0             1 
   141 s98          *              0             0             1 
   142 s44          *              0             0             1 
   143 s57          *              0             0             1 
   144 s39          *              0             0             1 
   145 s41          *              0             0             1 
   146 s43          *              0             0             1 
   147 s49          *              0             0             1 
   148 s50          *              0             0             1 
   149 s51          *              0             0             1 
   150 s53          *              0             0             1 
   151 s56          *              0             0             1 
   152 s58          *              0             0             1 
   153 s60          *              0             0             1 

Integer feasibility conditions:

KKT.PE: max.abs.err = 0.00e+00 on row 0
        max.rel.err = 0.00e+00 on row 0
        High quality

KKT.PB: max.abs.err = 0.00e+00 on row 0
        max.rel.err = 0.00e+00 on row 0
        High quality

End of output
